(set-logic HORN)

(declare-fun $main_sum116 ((Array Int Int) (Array Int Int) (Array Int Int) (Array Int Int) (Array Int Int) Int Int Int) Bool)
(declare-fun $main_inv114 ((Array Int Int) (Array Int Int) (Array Int Int) (Array Int Int) (Array Int Int) Int Int Int) Bool)
(declare-fun $main_sum113 ((Array Int Int) (Array Int Int) (Array Int Int) (Array Int Int) (Array Int Int) Int Int Int) Bool)
(declare-fun __VERIFIER_assert (Int) Bool)
(declare-fun $main_sum115 ((Array Int Int) (Array Int Int) (Array Int Int) (Array Int Int) (Array Int Int) Int Int Int) Bool)
(declare-fun $main_sum114 ((Array Int Int) (Array Int Int) (Array Int Int) (Array Int Int) (Array Int Int) Int Int Int) Bool)
(declare-fun $main_sum118 ((Array Int Int) (Array Int Int) (Array Int Int) (Array Int Int) (Array Int Int) Int Int Int) Bool)
(declare-fun $main_inv117 ((Array Int Int) (Array Int Int) (Array Int Int) (Array Int Int) (Array Int Int) Int Int Int) Bool)
(declare-fun $main_sum117 ((Array Int Int) (Array Int Int) (Array Int Int) (Array Int Int) (Array Int Int) Int Int Int) Bool)
(declare-fun $__VERIFIER_assert_ERROR (Int) Bool)
(declare-fun $main_inv113 ((Array Int Int) (Array Int Int) (Array Int Int) (Array Int Int) (Array Int Int) Int Int Int) Bool)
(declare-fun $__VERIFIER_assert_pre (Int) Bool)
(declare-fun $main_inv115 ((Array Int Int) (Array Int Int) (Array Int Int) (Array Int Int) (Array Int Int) Int Int Int) Bool)
(declare-fun $main_inv116 ((Array Int Int) (Array Int Int) (Array Int Int) (Array Int Int) (Array Int Int) Int Int Int) Bool)
(declare-fun $__VERIFIER_assert_if49 (Int) Bool)
(declare-fun $main_inv118 ((Array Int Int) (Array Int Int) (Array Int Int) (Array Int Int) (Array Int Int) Int Int Int) Bool)

; label ERROR
(assert
  (forall ((cond Int))
    (=> (and (= cond 0)
             ($__VERIFIER_assert_pre cond))
        ($__VERIFIER_assert_ERROR cond))))

; error
(assert
  (forall ((cond1695 Int))
    (=> (and ($__VERIFIER_assert_ERROR cond1695))
        false)))

; if else
(assert
  (forall ((cond Int))
    (=> (and (not (= cond 0))
             ($__VERIFIER_assert_pre cond))
        ($__VERIFIER_assert_if49 cond))))

; post __VERIFIER_assert
(assert
  (forall ((cond1696 Int))
    (=> (and ($__VERIFIER_assert_if49 cond1696))
        (__VERIFIER_assert cond1696))))

; loop entry $main_inv113
(assert
  (forall (($a4193 (Array Int Int)) ($a5194 (Array Int Int)) ($i196 Int) ($a1190 (Array Int Int)) ($x197 Int) ($a2191 (Array Int Int)) ($a3192 (Array Int Int)))
        ($main_inv113 $a1190 $a2191 $a3192 $a4193 $a5194 0 $i196 $x197)))

; loop term $main_sum113
(assert
  (forall (($x1971704 Int) ($a31921699 (Array Int Int)) ($a21911698 (Array Int Int)) ($a51941701 (Array Int Int)) ($a41931700 (Array Int Int)) ($i1961703 Int) ($a1951702 Int) ($a11901697 (Array Int Int)))
    (=> (and (not (< $a1951702 100000))
             ($main_inv113 $a11901697 $a21911698 $a31921699 $a41931700 $a51941701 $a1951702 $i1961703 $x1971704))
        ($main_sum113 $a11901697 $a21911698 $a31921699 $a41931700 $a51941701 $a1951702 $i1961703 $x1971704))))

; forwards $main_inv113
(assert
  (forall (($x1971704 Int) ($a31921699 (Array Int Int)) ($a21911698 (Array Int Int)) ($a51941701 (Array Int Int)) ($a41931700 (Array Int Int)) ($i1961703 Int) ($a1951702 Int) ($int1705 Int) ($a11901697 (Array Int Int)))
    (=> (and (<= (- 2147483648) $int1705)
             (<= $int1705 2147483647)
             (< $a1951702 100000)
             ($main_inv113 $a11901697 $a21911698 $a31921699 $a41931700 $a51941701 $a1951702 $i1961703 $x1971704))
        ($main_inv113 (store $a11901697 $a1951702 $int1705) $a21911698 $a31921699 $a41931700 $a51941701 (+ $a1951702 1) $i1961703 $x1971704))))

; loop entry $main_inv114
(assert
  (forall (($a1951711 Int) ($a21911707 (Array Int Int)) ($a41931709 (Array Int Int)) ($a51941710 (Array Int Int)) ($i1961712 Int) ($x1971713 Int) ($a31921708 (Array Int Int)) ($a11901706 (Array Int Int)))
    (=> (and ($main_sum113 $a11901706 $a21911707 $a31921708 $a41931709 $a51941710 $a1951711 $i1961712 $x1971713))
        ($main_inv114 $a11901706 $a21911707 $a31921708 $a41931709 $a51941710 $a1951711 0 $x1971713))))

; loop term $main_sum114
(assert
  (forall (($a31921716 (Array Int Int)) ($a1951719 Int) ($i1961720 Int) ($a51941718 (Array Int Int)) ($x1971721 Int) ($a21911715 (Array Int Int)) ($a11901714 (Array Int Int)) ($a41931717 (Array Int Int)))
    (=> (and (not (< $i1961720 100000))
             ($main_inv114 $a11901714 $a21911715 $a31921716 $a41931717 $a51941718 $a1951719 $i1961720 $x1971721))
        ($main_sum114 $a11901714 $a21911715 $a31921716 $a41931717 $a51941718 $a1951719 $i1961720 $x1971721))))

; forwards $main_inv114
(assert
  (forall (($a31921716 (Array Int Int)) ($a1951719 Int) ($i1961720 Int) ($a51941718 (Array Int Int)) ($x1971721 Int) ($a21911715 (Array Int Int)) ($a11901714 (Array Int Int)) ($a41931717 (Array Int Int)))
    (=> (and (< $i1961720 100000)
             ($main_inv114 $a11901714 $a21911715 $a31921716 $a41931717 $a51941718 $a1951719 $i1961720 $x1971721))
        ($main_inv114 $a11901714 (store $a21911715 $i1961720 (select $a11901714 $i1961720)) $a31921716 $a41931717 $a51941718 $a1951719 (+ $i1961720 1) $x1971721))))

; loop entry $main_inv115
(assert
  (forall (($a11901722 (Array Int Int)) ($a51941726 (Array Int Int)) ($i1961728 Int) ($x1971729 Int) ($a31921724 (Array Int Int)) ($a1951727 Int) ($a41931725 (Array Int Int)) ($a21911723 (Array Int Int)))
    (=> (and ($main_sum114 $a11901722 $a21911723 $a31921724 $a41931725 $a51941726 $a1951727 $i1961728 $x1971729))
        ($main_inv115 $a11901722 $a21911723 $a31921724 $a41931725 $a51941726 $a1951727 0 $x1971729))))

; loop term $main_sum115
(assert
  (forall (($a11901730 (Array Int Int)) ($a51941734 (Array Int Int)) ($a1951735 Int) ($a31921732 (Array Int Int)) ($a41931733 (Array Int Int)) ($i1961736 Int) ($a21911731 (Array Int Int)) ($x1971737 Int))
    (=> (and (not (< $i1961736 100000))
             ($main_inv115 $a11901730 $a21911731 $a31921732 $a41931733 $a51941734 $a1951735 $i1961736 $x1971737))
        ($main_sum115 $a11901730 $a21911731 $a31921732 $a41931733 $a51941734 $a1951735 $i1961736 $x1971737))))

; forwards $main_inv115
(assert
  (forall (($a11901730 (Array Int Int)) ($a51941734 (Array Int Int)) ($a1951735 Int) ($a31921732 (Array Int Int)) ($a41931733 (Array Int Int)) ($i1961736 Int) ($a21911731 (Array Int Int)) ($x1971737 Int))
    (=> (and (< $i1961736 100000)
             ($main_inv115 $a11901730 $a21911731 $a31921732 $a41931733 $a51941734 $a1951735 $i1961736 $x1971737))
        ($main_inv115 $a11901730 $a21911731 (store $a31921732 $i1961736 (select $a21911731 $i1961736)) $a41931733 $a51941734 $a1951735 (+ $i1961736 1) $x1971737))))

; loop entry $main_inv116
(assert
  (forall (($a1951743 Int) ($a21911739 (Array Int Int)) ($a41931741 (Array Int Int)) ($a51941742 (Array Int Int)) ($x1971745 Int) ($i1961744 Int) ($a11901738 (Array Int Int)) ($a31921740 (Array Int Int)))
    (=> (and ($main_sum115 $a11901738 $a21911739 $a31921740 $a41931741 $a51941742 $a1951743 $i1961744 $x1971745))
        ($main_inv116 $a11901738 $a21911739 $a31921740 $a41931741 $a51941742 $a1951743 0 $x1971745))))

; loop term $main_sum116
(assert
  (forall (($x1971753 Int) ($a1951751 Int) ($i1961752 Int) ($a21911747 (Array Int Int)) ($a51941750 (Array Int Int)) ($a11901746 (Array Int Int)) ($a41931749 (Array Int Int)) ($a31921748 (Array Int Int)))
    (=> (and (not (< $i1961752 100000))
             ($main_inv116 $a11901746 $a21911747 $a31921748 $a41931749 $a51941750 $a1951751 $i1961752 $x1971753))
        ($main_sum116 $a11901746 $a21911747 $a31921748 $a41931749 $a51941750 $a1951751 $i1961752 $x1971753))))

; forwards $main_inv116
(assert
  (forall (($x1971753 Int) ($a1951751 Int) ($i1961752 Int) ($a21911747 (Array Int Int)) ($a51941750 (Array Int Int)) ($a11901746 (Array Int Int)) ($a41931749 (Array Int Int)) ($a31921748 (Array Int Int)))
    (=> (and (< $i1961752 100000)
             ($main_inv116 $a11901746 $a21911747 $a31921748 $a41931749 $a51941750 $a1951751 $i1961752 $x1971753))
        ($main_inv116 $a11901746 $a21911747 $a31921748 (store $a41931749 $i1961752 (select $a31921748 $i1961752)) $a51941750 $a1951751 (+ $i1961752 1) $x1971753))))

; loop entry $main_inv117
(assert
  (forall (($a21911755 (Array Int Int)) ($x1971761 Int) ($a51941758 (Array Int Int)) ($a41931757 (Array Int Int)) ($i1961760 Int) ($a11901754 (Array Int Int)) ($a31921756 (Array Int Int)) ($a1951759 Int))
    (=> (and ($main_sum116 $a11901754 $a21911755 $a31921756 $a41931757 $a51941758 $a1951759 $i1961760 $x1971761))
        ($main_inv117 $a11901754 $a21911755 $a31921756 $a41931757 $a51941758 $a1951759 0 $x1971761))))

; loop term $main_sum117
(assert
  (forall (($a41931765 (Array Int Int)) ($x1971769 Int) ($i1961768 Int) ($a1951767 Int) ($a51941766 (Array Int Int)) ($a21911763 (Array Int Int)) ($a31921764 (Array Int Int)) ($a11901762 (Array Int Int)))
    (=> (and (not (< $i1961768 100000))
             ($main_inv117 $a11901762 $a21911763 $a31921764 $a41931765 $a51941766 $a1951767 $i1961768 $x1971769))
        ($main_sum117 $a11901762 $a21911763 $a31921764 $a41931765 $a51941766 $a1951767 $i1961768 $x1971769))))

; forwards $main_inv117
(assert
  (forall (($a41931765 (Array Int Int)) ($x1971769 Int) ($i1961768 Int) ($a1951767 Int) ($a51941766 (Array Int Int)) ($a21911763 (Array Int Int)) ($a31921764 (Array Int Int)) ($a11901762 (Array Int Int)))
    (=> (and (< $i1961768 100000)
             ($main_inv117 $a11901762 $a21911763 $a31921764 $a41931765 $a51941766 $a1951767 $i1961768 $x1971769))
        ($main_inv117 $a11901762 $a21911763 $a31921764 $a41931765 (store $a51941766 $i1961768 (select $a41931765 $i1961768)) $a1951767 (+ $i1961768 1) $x1971769))))

; loop entry $main_inv118
(assert
  (forall (($a11901770 (Array Int Int)) ($a1951775 Int) ($a41931773 (Array Int Int)) ($x1971777 Int) ($a51941774 (Array Int Int)) ($i1961776 Int) ($a31921772 (Array Int Int)) ($a21911771 (Array Int Int)))
    (=> (and ($main_sum117 $a11901770 $a21911771 $a31921772 $a41931773 $a51941774 $a1951775 $i1961776 $x1971777))
        ($main_inv118 $a11901770 $a21911771 $a31921772 $a41931773 $a51941774 $a1951775 $i1961776 0))))

; loop term $main_sum118
(assert
  (forall (($x1971785 Int) ($i1961784 Int) ($a1951783 Int) ($a21911779 (Array Int Int)) ($a41931781 (Array Int Int)) ($a51941782 (Array Int Int)) ($a31921780 (Array Int Int)) ($a11901778 (Array Int Int)))
    (=> (and (not (< $x1971785 100000))
             ($main_inv118 $a11901778 $a21911779 $a31921780 $a41931781 $a51941782 $a1951783 $i1961784 $x1971785))
        ($main_sum118 $a11901778 $a21911779 $a31921780 $a41931781 $a51941782 $a1951783 $i1961784 $x1971785))))

; __VERIFIER_assert precondition
(assert
  (forall (($x1971785 Int) ($i1961784 Int) ($a1951783 Int) ($a21911779 (Array Int Int)) ($a41931781 (Array Int Int)) ($a51941782 (Array Int Int)) ($a31921780 (Array Int Int)) ($a11901778 (Array Int Int)))
    (=> (and (< $x1971785 100000)
             ($main_inv118 $a11901778 $a21911779 $a31921780 $a41931781 $a51941782 $a1951783 $i1961784 $x1971785))
        ($__VERIFIER_assert_pre (ite (= (select $a11901778 $x1971785) (select $a51941782 $x1971785)) 1 0)))))

; forwards $main_inv118
(assert
  (forall (($x1971785 Int) ($i1961784 Int) ($a1951783 Int) ($a21911779 (Array Int Int)) ($a41931781 (Array Int Int)) ($a51941782 (Array Int Int)) ($a31921780 (Array Int Int)) ($a11901778 (Array Int Int)))
    (=> (and (__VERIFIER_assert (ite (= (select $a11901778 $x1971785) (select $a51941782 $x1971785)) 1 0))
             (< $x1971785 100000)
             ($main_inv118 $a11901778 $a21911779 $a31921780 $a41931781 $a51941782 $a1951783 $i1961784 $x1971785))
        ($main_inv118 $a11901778 $a21911779 $a31921780 $a41931781 $a51941782 $a1951783 $i1961784 (+ $x1971785 1)))))

(check-sat)
